p edge 25 39
e 0 11
e 0 17
e 1 4
e 1 9
e 1 11
e 2 11
e 2 15
e 2 21
e 3 12
e 4 5
e 4 11
e 4 15
e 5 21
e 7 9
e 7 16
e 7 20
e 7 21
e 8 9
e 8 16
e 8 19
e 9 18
e 10 13
e 10 14
e 10 23
e 11 16
e 11 17
e 11 22
e 12 17
e 12 24
e 13 18
e 14 17
e 14 20
e 14 22
e 15 20
e 16 19
e 16 23
e 17 24
e 19 22
e 22 23
